1640
63 82 50 22 16 37 30 2 4 6 59 94 8 39 23 18 9 62 99 89 43 66 20 76 45 75 72 19 41 24 81 79 12 98 7 14 91 83 90 85 80 54 28 73 33 77 31 17 47 71 49 35 56 51 36 42 87 26 74 95 69 38 5 53 52 97 10 15 55 13 61 92 40 64 21 60 1 67 25 68 78 48 86 34 11 29 32 57 58 96 3 44 65 27 88 84 46 70 93 
